p tw 77 83
1 2
2 13
3 4
4 5
5 6
6 7
7 8
8 9
9 10
10 11
11 12
12 14
13 24
14 15
14 16
15 74
16 17
17 18
18 19
19 20
20 21
21 22
22 23
23 25
24 35
25 26
26 27
27 28
28 29
29 30
30 31
31 32
32 33
33 34
33 37
34 36
35 46
36 39
37 38
38 39
39 40
40 41
41 42
41 45
42 43
43 44
44 74
45 47
46 57
47 48
47 50
48 49
49 52
50 51
51 52
52 53
53 54
54 55
55 56
56 58
57 68
58 59
59 60
60 61
60 69
61 62
61 69
62 63
63 64
64 65
64 69
65 66
66 67
67 69
68 76
69 70
70 71
71 72
72 73
73 74
74 75
76 77
77 3
